NAME : instances/diverse-tsp/instance-48.tsp
COMMENT : No Comment
TYPE : TSP
DIMENSION: 47
EDGE_WEIGHT_TYPE : EUC_2D
NODE_COORD_SECTION
1 1962 5 
2 1885 1023 
3 687 149 
4 51 1102 
5 62 1782 
6 545 1828 
7 475 1904 
8 1204 1907 
9 1966 1358 
10 1682 904 
11 1049 1091 
12 1437 463 
13 370 1739 
14 222 632 
15 664 212 
16 1262 363 
17 584 1517 
18 1308 203 
19 692 1119 
20 802 53 
21 863 528 
22 1915 1778 
23 859 1349 
24 515 615 
25 890 1452 
26 1104 1644 
27 1348 381 
28 1688 1769 
29 1550 1180 
30 428 1044 
31 99 507 
32 604 541 
33 1432 1456 
34 1310 1954 
35 1301 132 
36 197 1559 
37 1895 343 
38 793 156 
39 918 1655 
40 1183 968 
41 1083 1900 
42 1067 1782 
43 1433 1929 
44 130 1346 
45 606 1764 
46 1378 1700 
47 1591 690 
EOF
